proyfinal/src/viki/013/experimentInOfficeAgust.take6.output/ba2d5eec-7996-4ab9-99cc-72c0c618dada.als.dat
{'cnf.clauses': '118081',
 'cnf.totvars': '69608',
 'conflict literals': '11',
 'conflicts': '8',
 'decisions': '7244',
 'memused.mb': '18.17',
 'outcome': 'UNSAT',
 'propagations': '34580',
 'restarts': '1',
 'solver.msecs': 39,
 'task.msecs': 92}
