proyfinal/src/viki/013/experimentInOfficeAgust.take6.output/ba2d5eec-7996-4ab9-99cc-72c0c618dada.als.out
Reading from standard input... Use '--help' for help.
============================[ Problem Statistics ]=============================
|                                                                             |
|  Number of variables:         69608                                         |
|  Number of clauses:          118081                                         |
|  Parse time:                   0.03 s                                       |
|                                                                             |
============================[ Search Statistics ]==============================
| Conflicts |          ORIGINAL         |          LEARNT          | Progress |
|           |    Vars  Clauses Literals |    Limit  Clauses Lit/Cl |          |
===============================================================================
===============================================================================
restarts              : 1
conflicts             : 8              (203 /sec)
decisions             : 7244           (0.00 % random) (183858 /sec)
propagations          : 34580          (877665 /sec)
conflict literals     : 11             (0.00 % deleted)
Memory used           : 18.17 MB
CPU time              : 0.0394 s

UNSATISFIABLE
